NAME: random89
TYPE: TSP
DIMENSION: 89
EDGE_WEIGHT_TYPE: EXPLICIT
EDGE_WEIGHT_FORMAT: FULL_MATRIX
EDGE_WEIGHT_SECTION
0 1250 25 1250 1250 1250 1250 1250 20 1250 21 1250 31 1250 1250 16 1250 1250 1250 1250 24 1250 10 1250 43 28 1250 1250 1250 1250 25 1250 1250 1250 1250 1250 1250 1250 1250 1250 1250 1250 1250 1250 1250 1250 1250 1250 1250 18 1250 1250 14 18 1250 1250 27 36 1250 1250 1250 1250 1250 5 1250 1250 1250 1250 1250 1250 1250 1250 1250 1250 1250 1250 27 5 9 1250 1250 1250 1250 1250 15 24 1250 1250 1250
1250 0 32 1250 1250 1250 1250 35 1250 1250 33 1250 1250 1250 1250 15 8 9 1250 1250 32 1250 1250 1250 1250 4 1250 1250 26 1250 1250 1250 1250 1250 15 1250 1250 1250 1250 1250 1250 1250 1250 7 1250 1250 1250 1250 22 1250 1250 1250 17 1250 24 1250 22 1250 1250 1250 1250 1250 1250 1250 1250 1250 1250 1250 1250 1250 1250 1250 1250 1250 1250 1250 1250 24 24 1250 19 25 1250 1250 1250 1250 1250 1250 1250
25 32 0 1250 1250 1250 1250 1250 16 29 5 1250 30 1250 1250 29 40 38 1250 1250 1250 41 30 1250 1250 28 1250 1250 1250 40 9 1250 1250 1250 42 1250 1250 1250 1250 1250 1250 1250 1250 38 1250 1250 1250 1250 1250 29 1250 1250 29 1250 1250 1250 44 1250 1250 1250 1250 1250 1250 1250 1250 1250 1250 41 1250 47 1250 1250 1250 1250 1250 1250 1250 24 16 1250 1250 1250 1250 1250 18 1250 1250 1250 1250
1250 1250 1250 0 8 1250 1250 9 1250 1250 1250 1250 1250 20 1250 1250 1250 1250 11 1250 18 1250 1250 29 1250 1250 11 1250 24 1250 1250 1250 1250 1250 25 1250 1250 13 23 1250 1250 1250 1250 1250 1250 1250 1250 1250 1250 1250 1250 1250 33 1250 19 1250 18 1250 1250 6 1250 35 1250 1250 1250 36 18 1250 1250 1250 1250 1250 1250 1250 1250 1250 20 1250 1250 1250 1250 1250 15 41 1250 1250 20 10 1250
1250 1250 1250 8 0 1250 30 1 1250 1250 1250 1250 1250 1250 1250 1250 1250 1250 19 1250 22 1250 1250 1250 1250 1250 19 1250 16 1250 1250 1250 1250 1250 21 1250 1250 17 14 1250 1250 1250 1250 1250 1250 1250 1250 1250 1250 1250 1250 1250 1250 1250 12 1250 17 1250 1250 10 1250 44 1250 1250 1250 1250 21 1250 1250 1250 1250 1250 1250 1250 23 1250 1250 1250 1250 1250 20 37 22 47 1250 1250 26 18 1250
1250 1250 1250 1250 1250 0 1250 1250 33 24 1250 1250 19 1250 17 1250 1250 1250 1250 1250 1250 18 1250 1250 26 1250 1250 1250 1250 26 1250 1250 1250 1250 1250 1250 1250 1250 1250 13 1250 1250 1250 1250 1250 1250 41 34 1250 24 1250 7 1250 1250 1250 1250 1250 1250 9 1250 6 1250 1250 1250 1250 1250 1250 31 32 15 1250 1250 1250 13 1250 1250 1250 1250 1250 1250 1250 1250 1250 1250 1250 1250 1250 1250 1250
1250 1250 1250 1250 30 1250 0 1250 1250 1250 1250 1250 1250 1250 1250 1250 1250 1250 21 30 1250 1250 1250 31 1250 1250 1250 1250 1250 1250 1250 1250 1250 1250 1250 1250 1250 1250 42 1250 1250 1250 1250 1250 31 22 1250 1250 1250 1250 25 1250 1250 1250 1250 1250 1250 1250 1250 20 1250 24 30 1250 1250 20 13 1250 1250 1250 1250 1250 1250 1250 11 27 1250 1250 1250 31 1250 1250 10 18 1250 1250 4 1250 26
1250 35 1250 9 1 1250 1250 0 1250 1250 1250 1250 1250 1250 1250 31 31 1250 20 1250 22 1250 1250 1250 1250 1250 20 1250 15 1250 1250 1250 1250 1250 20 1250 1250 17 14 1250 1250 1250 1250 1250 1250 1250 1250 1250 33 1250 1250 1250 32 35 11 1250 16 1250 1250 11 1250 1250 1250 41 1250 1250 22 1250 1250 1250 1250 1250 1250 1250 24 1250 26 1250 1250 1250 19 36 23 48 1250 1250 1250 19 1250
20 1250 16 1250 1250 33 1250 1250 0 17 11 1250 15 1250 1250 1250 1250 1250 1250 1250 1250 28 20 1250 46 38 1250 1250 1250 29 8 1250 1250 1250 1250 1250 1250 1250 1250 21 1250 1250 1250 1250 1250 1250 1250 1250 1250 15 1250 1250 1250 1250 1250 1250 1250 46 35 1250 1250 1250 1250 24 1250 1250 1250 32 1250 33 1250 1250 1250 29 1250 1250 1250 23 18 1250 1250 1250 1250 1250 6 41 1250 1250 1250
1250 1250 29 1250 1250 24 1250 1250 17 0 25 1250 8 1250 1250 1250 1250 1250 1250 1250 1250 12 32 1250 46 1250 1250 1250 1250 13 19 1250 1250 1250 1250 1250 1250 1250 1250 19 1250 1250 1250 1250 1250 1250 1250 1250 1250 22 1250 1250 1250 1250 1250 1250 1250 1250 1250 1250 1250 1250 1250 1250 1250 1250 1250 16 1250 18 1250 1250 1250 15 1250 1250 1250 1250 34 1250 1250 1250 1250 1250 21 1250 1250 1250 1250
21 33 5 1250 1250 1250 1250 1250 11 25 0 1250 26 1250 1250 28 1250 40 1250 1250 1250 37 26 1250 1250 30 1250 1250 1250 37 6 1250 1250 1250 1250 1250 1250 1250 1250 32 1250 1250 1250 1250 1250 1250 1250 1250 1250 24 1250 1250 27 1250 1250 1250 1250 53 1250 1250 1250 1250 1250 26 1250 1250 1250 39 1250 1250 1250 1250 1250 1250 1250 1250 1250 22 14 1250 1250 1250 1250 1250 13 1250 1250 1250 1250
1250 1250 1250 1250 1250 1250 1250 1250 1250 1250 1250 0 1250 1250 1250 1250 1250 1250 1250 1250 1250 1250 1250 32 1250 1250 1250 31 1250 1250 1250 17 8 15 1250 1250 21 1250 1250 1250 30 14 19 1250 27 1250 1250 1250 1250 1250 1250 1250 1250 1250 1250 31 1250 1250 1250 1250 1250 21 16 1250 35 24 1250 1250 1250 1250 4 18 28 1250 1250 1250 1250 1250 1250 15 1250 1250 1250 1250 1250 1250 1250 1250 21
31 1250 30 1250 1250 19 1250 1250 15 8 26 1250 0 1250 35 1250 1250 1250 1250 1250 1250 14 26 1250 38 1250 1250 1250 1250 18 21 1250 1250 1250 1250 1250 1250 1250 1250 11 50 1250 1250 1250 1250 1250 1250 1250 1250 15 1250 24 1250 1250 1250 1250 1250 43 23 1250 19 1250 1250 1250 1250 1250 1250 23 1250 18 1250 1250 1250 14 1250 1250 1250 1250 32 1250 1250 1250 1250 1250 18 1250 1250 1250 1250
1250 1250 1250 20 1250 1250 1250 1250 1250 1250 1250 1250 1250 0 1250 1250 1250 1250 11 1250 12 1250 32 11 1250 1250 9 20 1250 1250 1250 1250 1250 1250 1250 1250 21 13 1250 1250 1250 1250 27 1250 1250 1250 1250 1250 1250 1250 1250 1250 1250 15 1250 1250 24 29 1250 24 1250 24 1250 28 1250 28 1250 1250 1250 1250 1250 1250 30 1250 1250 1250 6 1250 1250 28 1250 1250 21 1250 1250 13 1250 10 1250
1250 1250 1250 1250 1250 17 1250 1250 1250 1250 1250 1250 35 1250 0 1250 1250 1250 1250 1250 1250 33 1250 1250 20 1250 1250 1250 1250 41 1250 49 1250 1250 1250 33 1250 1250 1250 27 36 1250 1250 1250 1250 1250 26 19 1250 37 1250 11 1250 1250 1250 1250 1250 36 14 1250 17 1250 1250 1250 49 1250 1250 1250 22 29 1250 1250 1250 29 1250 1250 1250 1250 1250 1250 1250 1250 1250 1250 1250 1250 1250 1250 1250
16 15 29 1250 1250 1250 1250 31 1250 1250 28 1250 1250 1250 1250 0 20 24 1250 1250 20 1250 1250 1250 1250 16 1250 1250 29 1250 34 1250 1250 1250 15 1250 1250 22 35 1250 1250 1250 1250 20 1250 1250 1250 1250 33 1250 1250 1250 2 24 24 1250 15 1250 1250 1250 1250 1250 1250 18 1250 1250 1250 1250 1250 1250 1250 1250 1250 1250 1250 1250 26 11 15 1250 23 1250 1250 1250 28 1250 1250 1250 1250
1250 8 40 1250 1250 1250 1250 31 1250 1250 1250 1250 1250 1250 1250 20 0 6 1250 1250 1250 1250 1250 1250 1250 12 1250 1250 20 1250 1250 1250 1250 1250 13 1250 1250 1250 26 1250 1250 1250 1250 2 1250 1250 1250 1250 14 1250 1250 1250 22 1250 20 1250 22 1250 1250 1250 1250 1250 1250 1250 1250 1250 1250 1250 1250 1250 1250 1250 1250 1250 1250 1250 1250 1250 32 1250 13 17 1250 1250 1250 1250 1250 1250 1250
1250 9 38 1250 1250 1250 1250 1250 1250 1250 40 1250 1250 1250 1250 24 6 0 1250 1250 1250 1250 1250 1250 1250 10 1250 1250 26 1250 46 1250 1250 1250 19 1250 1250 1250 32 1250 1250 1250 1250 5 1250 1250 1250 1250 15 1250 1250 1250 26 1250 26 1250 28 1250 1250 1250 1250 1250 1250 1250 1250 1250 1250 1250 1250 1250 1250 1250 1250 1250 1250 1250 1250 1250 33 1250 19 18 1250 1250 46 1250 1250 1250 1250
1250 1250 1250 11 19 1250 21 20 1250 1250 1250 1250 1250 11 1250 1250 1250 1250 0 1250 15 1250 1250 18 1250 1250 3 30 1250 1250 1250 1250 1250 1250 1250 1250 26 13 33 1250 1250 1250 34 1250 1250 34 1250 1250 1250 1250 1250 1250 1250 24 1250 1250 23 39 1250 14 1250 25 37 1250 1250 27 22 1250 1250 1250 1250 1250 1250 1250 23 1250 13 1250 1250 31 1250 1250 11 1250 1250 24 19 2 36
1250 1250 1250 1250 1250 1250 30 1250 1250 1250 1250 1250 1250 1250 1250 1250 1250 1250 1250 0 1250 1250 1250 1250 1250 1250 1250 1250 1250 1250 1250 1250 1250 1250 1250 1250 1250 1250 1250 1250 1250 1250 1250 1250 3 11 1250 1250 1250 1250 11 1250 1250 1250 1250 1250 1250 1250 1250 1250 1250 1250 1250 1250 1250 20 1250 1250 1250 1250 1250 13 1250 1250 39 6 1250 1250 1250 1250 1250 1250 1250 20 1250 1250 1250 1250 12
24 32 1250 18 22 1250 1250 22 1250 1250 1250 1250 1250 12 1250 20 1250 1250 15 1250 0 1250 28 23 1250 35 12 1250 1250 1250 1250 1250 1250 1250 22 1250 1250 4 33 1250 1250 1250 1250 1250 1250 1250 1250 1250 1250 1250 1250 1250 20 13 23 1250 12 36 1250 1250 1250 1250 1250 21 1250 1250 1250 1250 1250 1250 1250 1250 1250 1250 1250 1250 7 23 31 1250 1250 1250 1250 1250 39 17 1250 13 1250
1250 1250 41 1250 1250 18 1250 1250 28 12 37 1250 14 1250 33 1250 1250 1250 1250 1250 1250 0 1250 1250 43 1250 1250 1250 1250 8 32 1250 1250 1250 1250 1250 1250 1250 1250 20 1250 1250 1250 1250 1250 1250 1250 52 1250 28 1250 25 1250 1250 1250 1250 1250 1250 1250 1250 22 1250 1250 1250 1250 1250 1250 13 1250 6 1250 1250 1250 5 1250 1250 1250 1250 1250 1250 1250 1250 1250 1250 32 1250 1250 1250 1250
10 1250 30 1250 1250 1250 1250 1250 20 32 26 1250 26 32 1250 1250 1250 1250 1250 1250 28 1250 0 35 34 1250 38 30 1250 1250 27 1250 1250 1250 1250 41 44 32 1250 22 36 1250 42 1250 1250 1250 1250 1250 1250 11 1250 1250 23 17 1250 1250 34 28 31 1250 1250 1250 1250 7 1250 1250 1250 1250 1250 1250 1250 1250 36 1250 1250 1250 28 14 18 1250 1250 1250 1250 1250 14 21 1250 1250 1250
1250 1250 1250 29 1250 1250 31 1250 1250 1250 1250 32 1250 11 1250 1250 1250 1250 18 1250 23 1250 35 0 1250 1250 18 13 1250 1250 1250 34 1250 1250 1250 1250 11 24 1250 1250 25 30 16 1250 1250 1250 1250 1250 1250 43 1250 1250 1250 19 1250 1250 1250 22 1250 32 1250 17 29 1250 1250 23 38 1250 1250 1250 1250 1250 20 1250 1250 1250 16 1250 1250 19 1250 1250 25 1250 1250 14 1250 19 1250
43 1250 1250 1250 1250 26 1250 1250 46 46 1250 1250 38 1250 20 1250 1250 1250 1250 1250 1250 43 34 1250 0 1250 1250 26 1250 1250 1250 32 1250 1250 1250 15 1250 1250 1250 27 16 1250 31 1250 1250 1250 23 21 1250 31 1250 20 1250 37 1250 41 1250 16 17 1250 21 1250 1250 1250 40 1250 1250 1250 8 41 1250 1250 21 39 1250 1250 1250 1250 1250 1250 1250 1250 1250 1250 43 33 1250 1250 1250
28 4 28 1250 1250 1250 1250 1250 38 1250 30 1250 1250 1250 1250 16 12 10 1250 1250 35 1250 1250 1250 1250 0 1250 1250 1250 1250 36 1250 1250 1250 19 1250 1250 1250 1250 1250 1250 1250 1250 10 1250 1250 1250 1250 25 1250 1250 1250 18 1250 28 1250 26 1250 1250 1250 1250 1250 1250 32 1250 1250 1250 69 1250 1250 1250 1250 1250 1250 1250 1250 1250 24 22 1250 23 1250 1250 1250 36 1250 1250 1250 1250
1250 1250 1250 11 19 1250 1250 20 1250 1250 1250 1250 1250 9 1250 1250 1250 1250 3 1250 12 1250 38 18 1250 1250 0 29 1250 1250 1250 1250 1250 1250 1250 1250 26 10 1250 1250 1250 1250 1250 1250 1250 1250 1250 1250 1250 1250 1250 1250 32 21 1250 1250 20 1250 1250 15 1250 27 1250 33 1250 1250 1250 1250 1250 1250 1250 1250 1250 1250 1250 1250 10 1250 1250 1250 1250 1250 14 1250 1250 21 1250 1 1250
1250 1250 1250 1250 1250 1250 1250 1250 1250 1250 1250 31 1250 20 1250 1250 1250 1250 30 1250 1250 1250 30 13 26 1250 29 0 1250 1250 1250 27 31 1250 1250 21 16 1250 1250 1250 14 35 12 1250 1250 1250 1250 1250 1250 36 1250 1250 1250 20 1250 1250 1250 10 1250 1250 1250 25 35 31 1250 1250 1250 1250 1250 1250 31 1250 9 1250 1250 1250 23 1250 1250 23 1250 1250 37 1250 44 14 1250 1250 1250
1250 26 1250 24 16 1250 1250 15 1250 1250 1250 1250 1250 1250 1250 29 20 26 1250 1250 1250 1250 1250 1250 1250 1250 1250 1250 0 1250 1250 1250 1250 1250 15 1250 1250 27 7 1250 1250 1250 1250 22 1250 1250 1250 1250 18 1250 1250 1250 1250 1250 7 1250 19 1250 1250 1250 1250 1250 1250 1250 1250 1250 36 1250 1250 1250 1250 1250 1250 1250 1250 1250 1250 1250 1250 1250 7 20 1250 1250 1250 1250 1250 1250 1250
1250 1250 40 1250 1250 26 1250 1250 29 13 37 1250 18 1250 41 1250 1250 1250 1250 1250 1250 8 1250 1250 1250 1250 1250 1250 1250 0 31 1250 1250 1250 1250 1250 1250 1250 1250 27 1250 1250 1250 1250 1250 1250 1250 1250 1250 34 1250 1250 1250 1250 1250 1250 1250 1250 1250 1250 1250 1250 1250 1250 1250 1250 1250 5 1250 12 1250 1250 1250 12 1250 1250 1250 1250 1250 1250 1250 1250 1250 1250 1250 1250 1250 1250 1250
25 1250 9 1250 1250 1250 1250 1250 8 19 6 1250 21 1250 1250 34 1250 46 1250 1250 1250 32 27 1250 1250 36 1250 1250 1250 31 0 1250 1250 1250 1250 1250 1250 1250 1250 29 1250 1250 1250 1250 1250 1250 1250 1250 1250 23 1250 1250 1250 1250 1250 1250 1250 1250 1250 1250 1250 1250 1250 1250 1250 1250 1250 33 1250 38 1250 1250 1250 34 1250 1250 1250 1250 19 1250 1250 1250 1250 1250 12 1250 1250 1250 1250
1250 1250 1250 1250 1250 1250 1250 1250 1250 1250 1250 17 1250 1250 49 1250 1250 1250 1250 1250 1250 1250 1250 34 32 1250 1250 27 1250 1250 1250 0 10 32 1250 17 26 1250 1250 1250 19 30 17 1250 44 1250 31 37 1250 58 1250 1250 1250 1250 1250 20 1250 27 1250 1250 1250 1250 1250 1250 23 1250 1250 1250 27 1250 12 34 19 1250 1250 1250 1250 1250 1250 24 1250 1250 1250 1250 1250 41 1250 1250 1250
1250 1250 1250 1250 1250 1250 1250 1250 1250 1250 1250 8 1250 1250 1250 1250 1250 1250 1250 1250 1250 1250 1250 1250 1250 1250 1250 31 1250 1250 1250 10 0 23 1250 26 25 1250 1250 1250 26 22 19 1250 35 1250 40 1250 1250 1250 1250 1250 1250 1250 1250 24 1250 1250 1250 1250 1250 1250 23 1250 28 1250 1250 1250 1250 1250 3 26 25 1250 1250 1250 1250 1250 1250 20 1250 1250 1250 1250 1250 1250 1250 1250 29
1250 1250 1250 1250 1250 1250 1250 1250 1250 1250 1250 15 1250 1250 1250 1250 1250 1250 1250 1250 1250 1250 1250 1250 1250 1250 1250 1250 1250 1250 1250 32 23 0 1250 46 27 1250 1250 1250 1250 7 30 1250 12 15 1250 1250 1250 1250 11 1250 1250 1250 1250 45 1250 1250 1250 1250 1250 21 9 1250 49 19 1250 1250 1250 1250 20 8 1250 1250 1250 1250 1250 1250 1250 19 1250 1250 1250 1250 1250 1250 1250 1250 11
1250 15 42 25 21 1250 1250 20 1250 1250 1250 1250 1250 1250 1250 15 13 19 1250 1250 22 1250 1250 1250 1250 19 1250 1250 15 1250 1250 1250 1250 1250 0 1250 1250 20 21 1250 1250 1250 1250 14 1250 1250 1250 1250 22 1250 1250 1250 17 1250 10 1250 10 1250 1250 1250 1250 1250 1250 31 1250 1250 1250 1250 1250 1250 1250 1250 1250 1250 1250 1250 1250 26 30 1250 9 25 1250 1250 1250 1250 1250 1250 1250
1250 1250 1250 1250 1250 1250 1250 1250 1250 1250 1250 1250 1250 1250 33 1250 1250 1250 1250 1250 1250 1250 41 1250 15 1250 1250 21 1250 1250 1250 17 26 46 1250 0 1250 1250 1250 41 7 1250 20 1250 1250 1250 22 25 1250 42 1250 34 1250 1250 1250 30 1250 14 32 1250 1250 1250 1250 1250 29 1250 1250 1250 12 56 28 1250 12 1250 1250 1250 1250 1250 1250 1250 1250 1250 1250 1250 1250 1250 1250 1250 1250
1250 1250 1250 1250 1250 1250 1250 1250 1250 1250 1250 21 1250 21 1250 1250 1250 1250 26 1250 1250 1250 44 11 1250 1250 26 16 1250 1250 1250 26 25 27 1250 1250 0 1250 1250 1250 24 20 10 1250 1250 1250 1250 1250 1250 1250 1250 1250 1250 1250 1250 1250 1250 25 1250 38 1250 9 19 1250 1250 16 1250 1250 1250 1250 23 22 19 1250 1250 1250 26 1250 1250 8 1250 1250 28 1250 1250 24 1250 1250 22
1250 1250 1250 13 17 1250 1250 17 1250 1250 1250 1250 1250 13 1250 22 1250 1250 13 1250 4 1250 32 24 1250 1250 10 1250 27 1250 1250 1250 1250 1250 20 1250 1250 0 29 1250 1250 1250 1250 1250 1250 1250 1250 1250 1250 1250 1250 1250 22 17 20 1250 11 1250 1250 19 1250 1250 1250 26 1250 1250 31 1250 1250 1250 1250 1250 1250 1250 1250 1250 9 26 34 1250 26 1250 24 1250 1250 21 1250 11 1250
1250 1250 1250 23 14 1250 42 14 1250 1250 1250 1250 1250 1250 1250 35 26 32 33 1250 33 1250 1250 1250 1250 1250 1250 1250 7 1250 1250 1250 1250 1250 21 1250 1250 29 0 1250 1250 1250 1250 1250 1250 63 1250 1250 23 1250 1250 1250 1250 1250 11 1250 23 1250 1250 23 1250 1250 1250 1250 1250 1250 31 1250 1250 1250 1250 1250 1250 1250 34 1250 1250 1250 1250 1250 14 25 36 57 1250 1250 38 32 1250
1250 1250 1250 1250 1250 13 1250 1250 21 19 32 1250 11 1250 27 1250 1250 1250 1250 1250 1250 20 22 1250 27 1250 1250 1250 1250 27 29 1250 1250 1250 1250 41 1250 1250 1250 0 39 1250 1250 1250 1250 1250 1250 43 1250 11 1250 16 1250 1250 1250 1250 1250 33 14 1250 10 1250 1250 1250 1250 1250 1250 1250 35 22 1250 1250 41 17 1250 1250 1250 1250 1250 1250 1250 1250 1250 1250 21 37 1250 1250 1250
1250 1250 1250 1250 1250 1250 1250 1250 1250 1250 1250 30 50 1250 36 1250 1250 1250 1250 1250 1250 1250 36 25 16 1250 1250 14 1250 1250 1250 19 26 1250 1250 7 24 1250 1250 39 0 1250 15 1250 1250 1250 29 32 1250 39 1250 1250 1250 1250 1250 35 1250 8 33 1250 1250 1250 1250 1250 35 1250 1250 1250 17 1250 27 1250 5 1250 1250 1250 1250 1250 1250 1250 1250 1250 1250 1250 49 26 1250 1250 1250
1250 1250 1250 1250 1250 1250 1250 1250 1250 1250 1250 14 1250 1250 1250 1250 1250 1250 1250 1250 1250 1250 1250 30 1250 1250 1250 35 1250 1250 1250 30 22 7 1250 1250 20 1250 1250 1250 1250 0 25 1250 14 1250 1250 1250 1250 1250 7 1250 1250 1250 1250 46 1250 1250 1250 1250 1250 14 2 1250 1250 12 1250 1250 1250 1250 19 4 1250 1250 1250 1250 1250 1250 1250 12 1250 1250 35 1250 1250 1250 1250 1250 7
1250 1250 1250 1250 1250 1250 1250 1250 1250 1250 1250 19 1250 27 1250 1250 1250 1250 34 1250 1250 1250 42 16 31 1250 1250 12 1250 1250 1250 17 19 30 1250 20 10 1250 1250 1250 15 25 0 1250 1250 1250 1250 1250 1250 1250 1250 1250 1250 1250 1250 38 1250 18 1250 1250 1250 18 25 1250 40 25 1250 1250 1250 1250 19 28 10 1250 1250 1250 1250 1250 1250 13 1250 1250 1250 1250 1250 25 1250 1250 1250
1250 7 38 1250 1250 1250 1250 1250 1250 1250 1250 1250 1250 1250 1250 20 2 5 1250 1250 1250 1250 1250 1250 1250 10 1250 1250 22 1250 1250 1250 1250 1250 14 1250 1250 1250 1250 1250 1250 1250 1250 0 1250 1250 1250 1250 15 1250 1250 1250 1250 1250 22 1250 24 1250 1250 1250 1250 1250 1250 1250 1250 1250 1250 1250 1250 1250 1250 1250 1250 1250 1250 1250 1250 1250 31 1250 15 18 1250 1250 1250 1250 1250 1250 1250
1250 1250 1250 1250 1250 1250 31 1250 1250 1250 1250 27 1250 1250 1250 1250 1250 1250 1250 3 1250 1250 1250 1250 1250 1250 1250 1250 1250 1250 1250 44 35 12 1250 1250 1250 1250 1250 1250 1250 14 1250 1250 0 11 1250 1250 1250 1250 11 1250 1250 1250 1250 57 1250 1250 1250 1250 1250 25 14 1250 61 19 1250 1250 1250 1250 32 11 1250 1250 1250 9 1250 1250 1250 26 1250 1250 38 22 1250 1250 1250 1250 11
1250 1250 1250 1250 1250 1250 22 1250 1250 1250 1250 1250 1250 1250 1250 1250 1250 1250 34 11 1250 1250 1250 1250 1250 1250 1250 1250 1250 1250 1250 1250 1250 15 1250 1250 1250 1250 63 1250 1250 1250 1250 1250 11 0 1250 1250 1250 1250 4 1250 1250 1250 1250 1250 1250 1250 1250 1250 1250 16 10 1250 1250 9 34 1250 1250 1250 1250 9 1250 1250 32 13 1250 1250 1250 1250 1250 1250 27 19 1250 1250 25 1250 5
1250 1250 1250 1250 1250 41 1250 1250 1250 1250 1250 1250 1250 1250 26 1250 1250 1250 1250 1250 1250 1250 1250 1250 23 1250 1250 1250 1250 1250 1250 31 40 1250 1250 22 1250 1250 1250 1250 29 1250 1250 1250 1250 1250 0 8 1250 1250 1250 1250 1250 1250 1250 27 1250 35 34 1250 1250 1250 1250 1250 24 1250 1250 1250 15 54 1250 1250 34 1250 1250 1250 1250 1250 1250 1250 1250 1250 1250 1250 1250 1250 1250 1250 1250
1250 1250 1250 1250 1250 34 1250 1250 1250 1250 1250 1250 1250 1250 19 1250 1250 1250 1250 1250 1250 52 1250 1250 21 1250 1250 1250 1250 1250 1250 37 1250 1250 1250 25 1250 1250 1250 43 32 1250 1250 1250 1250 1250 8 0 1250 1250 1250 28 1250 1250 1250 34 1250 1250 29 1250 33 1250 1250 1250 31 1250 1250 1250 15 47 1250 1250 1250 47 1250 1250 1250 1250 1250 1250 1250 1250 1250 1250 1250 1250 1250 1250 1250
1250 22 1250 1250 1250 1250 1250 33 1250 1250 1250 1250 1250 1250 1250 33 14 15 1250 1250 1250 1250 1250 1250 1250 25 1250 1250 18 1250 1250 1250 1250 1250 22 1250 1250 1250 23 1250 1250 1250 1250 15 1250 1250 1250 1250 0 1250 1250 1250 1250 1250 23 1250 31 1250 1250 1250 1250 1250 1250 1250 1250 1250 1250 1250 1250 1250 1250 1250 1250 1250 1250 1250 1250 1250 1250 1250 16 4 1250 1250 1250 1250 1250 1250 1250
18 1250 29 1250 1250 24 1250 1250 15 22 24 1250 15 1250 37 1250 1250 1250 1250 1250 1250 28 11 43 31 1250 1250 36 1250 34 23 58 1250 1250 1250 42 1250 1250 1250 11 39 1250 1250 1250 1250 1250 1250 1250 1250 0 1250 26 1250 27 1250 1250 1250 31 23 1250 21 1250 1250 18 1250 1250 1250 38 40 32 1250 1250 40 27 1250 1250 38 23 23 1250 1250 1250 1250 1250 12 30 1250 1250 1250
1250 1250 1250 1250 1250 1250 25 1250 1250 1250 1250 1250 1250 1250 1250 1250 1250 1250 1250 11 1250 1250 1250 1250 1250 1250 1250 1250 1250 1250 1250 1250 1250 11 1250 1250 1250 1250 1250 1250 1250 7 1250 1250 11 4 1250 1250 1250 1250 0 1250 1250 1250 1250 53 1250 1250 1250 1250 1250 14 6 1250 1250 9 1250 1250 1250 1250 1250 4 1250 1250 36 16 1250 1250 1250 16 1250 1250 30 23 1250 1250 29 1250 1
1250 1250 1250 1250 1250 7 1250 1250 1250 1250 1250 1250 24 1250 11 1250 1250 1250 1250 1250 1250 25 1250 1250 20 1250 1250 1250 1250 1250 1250 1250 1250 1250 1250 34 1250 1250 1250 16 1250 1250 1250 1250 1250 1250 1250 28 1250 26 1250 0 1250 1250 1250 1250 1250 1250 4 1250 6 1250 1250 1250 1250 1250 1250 1250 25 22 1250 1250 1250 20 1250 1250 1250 1250 1250 1250 1250 1250 1250 1250 1250 1250 1250 1250 1250
14 17 29 33 1250 1250 1250 32 1250 1250 27 1250 1250 1250 1250 2 22 26 1250 1250 20 1250 23 1250 1250 18 32 1250 1250 1250 1250 1250 1250 1250 17 1250 1250 22 1250 1250 1250 1250 1250 1250 1250 1250 1250 1250 1250 1250 1250 1250 0 22 25 1250 16 1250 1250 1250 1250 1250 1250 16 1250 1250 1250 1250 1250 1250 1250 1250 1250 1250 1250 1250 25 9 14 1250 25 1250 1250 1250 26 29 1250 1250 1250
18 1250 1250 1250 1250 1250 1250 35 1250 1250 1250 1250 1250 15 1250 24 1250 1250 24 1250 13 1250 17 19 37 1250 21 20 1250 1250 1250 1250 1250 1250 1250 1250 1250 17 1250 1250 1250 1250 1250 1250 1250 1250 1250 1250 1250 27 1250 1250 22 0 1250 1250 24 24 1250 1250 1250 1250 1250 13 1250 1250 1250 1250 1250 1250 1250 1250 29 1250 1250 1250 11 20 27 1250 1250 1250 1250 1250 31 7 1250 22 1250
1250 24 1250 19 12 1250 1250 11 1250 1250 1250 1250 1250 1250 1250 24 20 26 1250 1250 23 1250 1250 1250 1250 28 1250 1250 7 1250 1250 1250 1250 1250 10 1250 1250 20 11 1250 1250 1250 1250 22 1250 1250 1250 1250 23 1250 1250 1250 25 1250 0 1250 12 1250 1250 22 1250 1250 1250 1250 1250 1250 34 1250 1250 1250 1250 1250 1250 1250 1250 1250 29 1250 39 1250 8 26 1250 59 1250 1250 1250 26 1250
1250 1250 1250 1250 1250 1250 1250 1250 1250 1250 1250 31 1250 1250 1250 1250 1250 1250 1250 1250 1250 1250 1250 1250 41 1250 1250 1250 1250 1250 1250 20 24 45 1250 30 1250 1250 1250 1250 35 46 38 1250 57 1250 27 34 1250 1250 53 1250 1250 1250 1250 0 1250 1250 1250 1250 1250 1250 47 1250 4 1250 1250 1250 34 1250 27 49 37 1250 1250 1250 1250 1250 1250 44 1250 1250 1250 1250 1250 1250 1250 1250 53
27 22 44 18 17 1250 1250 16 1250 1250 1250 1250 1250 24 1250 15 22 28 23 1250 12 1250 34 1250 1250 26 20 1250 19 1250 1250 1250 1250 1250 10 1250 1250 11 23 1250 1250 1250 1250 24 1250 1250 1250 1250 31 1250 1250 1250 16 24 12 1250 0 1250 1250 24 1250 1250 1250 26 1250 1250 36 1250 1250 1250 1250 1250 1250 1250 1250 1250 19 23 29 1250 16 35 1250 1250 1250 29 1250 21 1250
36 1250 1250 1250 1250 1250 1250 1250 46 1250 53 1250 43 29 36 1250 1250 1250 39 1250 36 1250 28 22 16 1250 1250 10 1250 1250 1250 27 1250 1250 1250 14 25 1250 1250 33 8 1250 18 1250 1250 1250 35 1250 1250 31 1250 1250 1250 24 1250 1250 1250 0 29 1250 32 34 1250 31 44 1250 1250 1250 20 1250 34 1250 9 49 1250 1250 31 1250 45 31 1250 1250 1250 1250 41 19 1250 1250 1250
1250 1250 1250 1250 1250 9 1250 1250 35 1250 1250 1250 23 1250 14 1250 1250 1250 1250 1250 1250 1250 31 1250 17 1250 1250 1250 1250 1250 1250 1250 1250 1250 1250 32 1250 1250 1250 14 33 1250 1250 1250 1250 1250 34 29 1250 23 1250 4 1250 1250 1250 1250 1250 29 0 1250 5 1250 1250 1250 1250 1250 1250 1250 23 24 1250 1250 1250 22 1250 1250 1250 1250 1250 1250 1250 1250 1250 1250 1250 1250 1250 1250 1250
1250 1250 1250 6 10 1250 20 11 1250 1250 1250 1250 1250 24 1250 1250 1250 1250 14 1250 1250 1250 1250 32 1250 1250 15 1250 1250 1250 1250 1250 1250 1250 1250 1250 38 19 23 1250 1250 1250 1250 1250 1250 1250 1250 1250 1250 1250 1250 1250 1250 1250 22 1250 24 1250 1250 0 1250 35 45 1250 1250 35 13 1250 1250 1250 1250 1250 1250 1250 14 1250 1250 1250 1250 1250 1250 1250 13 37 1250 1250 16 14 1250
1250 1250 1250 1250 1250 6 1250 1250 1250 1250 1250 1250 19 1250 17 1250 1250 1250 1250 1250 1250 22 1250 1250 21 1250 1250 1250 1250 1250 1250 1250 1250 1250 1250 1250 1250 1250 1250 10 1250 1250 1250 1250 1250 1250 1250 33 1250 21 1250 6 1250 1250 1250 1250 1250 32 5 1250 0 1250 1250 1250 1250 1250 1250 1250 28 21 1250 1250 1250 18 1250 1250 1250 1250 1250 1250 1250 1250 1250 1250 1250 1250 1250 1250 1250
1250 1250 1250 35 44 1250 24 1250 1250 1250 1250 21 1250 24 1250 1250 1250 1250 25 1250 1250 1250 1250 17 1250 1250 27 25 1250 1250 1250 1250 1250 21 1250 1250 9 1250 1250 1250 1250 14 18 1250 25 16 1250 1250 1250 1250 14 1250 1250 1250 1250 1250 1250 34 1250 35 1250 0 13 1250 1250 7 35 1250 1250 1250 24 15 28 1250 34 1250 30 1250 1250 7 1250 1250 24 32 1250 31 26 27 14
1250 1250 1250 1250 1250 1250 30 1250 1250 1250 1250 16 1250 1250 1250 1250 1250 1250 37 1250 1250 1250 1250 29 1250 1250 1250 35 1250 1250 1250 1250 23 9 1250 1250 19 1250 1250 1250 1250 2 25 1250 14 10 1250 1250 1250 1250 6 1250 1250 1250 1250 47 1250 1250 1250 45 1250 13 0 1250 1250 11 1250 1250 1250 1250 20 3 1250 1250 1250 1250 1250 1250 1250 12 1250 1250 33 1250 1250 1250 33 1250 5
5 1250 1250 1250 1250 1250 1250 41 24 1250 26 1250 1250 28 1250 18 1250 1250 1250 1250 21 1250 7 1250 1250 32 33 31 1250 1250 1250 1250 1250 1250 31 1250 1250 26 1250 1250 1250 1250 1250 1250 1250 1250 1250 1250 1250 18 1250 1250 16 13 1250 1250 26 31 1250 1250 1250 1250 1250 0 1250 1250 1250 1250 1250 1250 1250 1250 1250 1250 1250 1250 23 9 15 1250 1250 1250 1250 1250 18 19 1250 1250 1250
1250 1250 1250 1250 1250 1250 1250 1250 1250 1250 1250 35 1250 1250 49 1250 1250 1250 1250 1250 1250 1250 1250 1250 40 1250 1250 1250 1250 1250 1250 23 28 49 1250 29 1250 1250 1250 1250 35 1250 40 1250 61 1250 24 31 1250 1250 1250 1250 1250 1250 1250 4 1250 44 1250 1250 1250 1250 1250 1250 0 1250 1250 1250 32 77 31 1250 38 1250 1250 1250 1250 1250 1250 1250 1250 1250 1250 1250 1250 1250 1250 1250 1250
1250 1250 1250 36 1250 1250 20 1250 1250 1250 1250 24 1250 28 1250 1250 1250 1250 27 20 1250 1250 1250 23 1250 1250 1250 1250 1250 1250 1250 1250 1250 19 1250 1250 16 1250 1250 1250 1250 12 25 1250 19 9 1250 1250 1250 1250 9 1250 1250 1250 1250 1250 1250 1250 1250 35 1250 7 11 1250 1250 0 32 1250 1250 1250 1250 11 1250 1250 30 22 1250 1250 1250 12 1250 1250 22 25 1250 1250 23 1250 9
1250 1250 1250 18 21 1250 13 22 1250 1250 1250 1250 1250 1250 1250 1250 1250 1250 22 1250 1250 1250 1250 38 1250 1250 1250 1250 36 1250 1250 1250 1250 1250 1250 1250 1250 31 31 1250 1250 1250 1250 1250 1250 34 1250 1250 1250 1250 1250 1250 1250 1250 34 1250 36 1250 1250 13 1250 35 1250 1250 1250 32 0 1250 1250 1250 1250 1250 1250 1250 2 38 1250 1250 1250 1250 1250 1250 13 26 1250 1250 9 23 1250
1250 1250 41 1250 1250 31 1250 1250 32 16 39 1250 23 1250 1250 1250 1250 1250 1250 1250 1250 13 1250 1250 1250 69 1250 1250 1250 5 33 1250 1250 1250 1250 1250 1250 1250 1250 1250 1250 1250 1250 1250 1250 1250 1250 1250 1250 38 1250 1250 1250 1250 1250 1250 1250 1250 1250 1250 1250 1250 1250 1250 1250 1250 1250 0 1250 17 1250 1250 1250 17 1250 1250 1250 1250 50 1250 1250 1250 1250 1250 38 1250 1250 1250 1250
1250 1250 1250 1250 1250 32 1250 1250 1250 1250 1250 1250 1250 1250 22 1250 1250 1250 1250 1250 1250 1250 1250 1250 8 1250 1250 1250 1250 1250 1250 27 1250 1250 1250 12 1250 1250 1250 35 17 1250 1250 1250 1250 1250 15 15 1250 40 1250 25 1250 1250 1250 34 1250 20 23 1250 28 1250 1250 1250 32 1250 1250 1250 0 47 1250 1250 22 45 1250 1250 1250 1250 1250 1250 1250 1250 1250 1250 1250 1250 1250 1250 1250
1250 1250 47 1250 1250 15 1250 1250 33 18 1250 1250 18 1250 29 1250 1250 1250 1250 1250 1250 6 1250 1250 41 1250 1250 1250 1250 12 38 1250 1250 1250 1250 56 1250 1250 1250 22 1250 1250 1250 1250 1250 1250 54 47 1250 32 1250 22 1250 1250 1250 1250 1250 1250 24 1250 21 1250 1250 1250 77 1250 1250 17 47 0 1250 1250 1250 5 1250 1250 1250 1250 1250 1250 1250 1250 1250 1250 1250 1250 1250 1250 1250
1250 1250 1250 1250 1250 1250 1250 1250 1250 1250 1250 4 1250 1250 1250 1250 1250 1250 1250 1250 1250 1250 1250 1250 1250 1250 1250 31 1250 1250 1250 12 3 20 1250 28 23 1250 1250 1250 27 19 19 1250 32 1250 1250 1250 1250 1250 1250 1250 1250 1250 1250 27 1250 34 1250 1250 1250 24 20 1250 31 1250 1250 1250 1250 1250 0 22 26 1250 1250 1250 1250 1250 1250 17 1250 1250 1250 1250 1250 1250 1250 1250 1250
1250 1250 1250 1250 1250 1250 1250 1250 1250 1250 1250 18 1250 1250 1250 1250 1250 1250 1250 13 1250 1250 1250 1250 1250 1250 1250 1250 1250 1250 1250 34 26 8 1250 1250 22 1250 1250 1250 1250 4 28 1250 11 9 1250 1250 1250 1250 4 1250 1250 1250 1250 49 1250 1250 1250 1250 1250 15 3 1250 1250 11 1250 1250 1250 1250 22 0 1250 1250 1250 1250 1250 1250 1250 15 1250 1250 33 1250 1250 1250 1250 1250 3
1250 1250 1250 1250 1250 1250 1250 1250 1250 1250 1250 28 1250 30 1250 1250 1250 1250 1250 1250 1250 1250 36 20 21 1250 1250 9 1250 1250 1250 19 25 1250 1250 12 19 1250 1250 41 5 1250 10 1250 1250 1250 34 1250 1250 40 1250 1250 1250 29 1250 37 1250 9 1250 1250 1250 28 1250 1250 38 1250 1250 1250 22 1250 26 1250 0 1250 1250 1250 1250 1250 1250 24 1250 1250 1250 1250 1250 23 1250 1250 1250
1250 1250 1250 1250 1250 13 1250 1250 29 15 1250 1250 14 1250 29 1250 1250 1250 1250 1250 1250 5 1250 1250 39 1250 1250 1250 1250 12 34 1250 1250 1250 1250 1250 1250 1250 1250 17 1250 1250 1250 1250 1250 1250 1250 47 1250 27 1250 20 1250 1250 1250 1250 1250 49 22 1250 18 1250 1250 1250 1250 1250 1250 17 45 5 1250 1250 1250 0 1250 1250 1250 1250 1250 1250 1250 1250 1250 1250 32 1250 1250 1250 1250
1250 1250 1250 1250 23 1250 11 24 1250 1250 1250 1250 1250 1250 1250 1250 1250 1250 23 39 1250 1250 1250 1250 1250 1250 1250 1250 1250 1250 1250 1250 1250 1250 1250 1250 1250 1250 34 1250 1250 1250 1250 1250 1250 32 1250 1250 1250 1250 36 1250 1250 1250 1250 1250 1250 1250 1250 14 1250 34 1250 1250 1250 30 2 1250 1250 1250 1250 1250 1250 1250 0 36 1250 1250 1250 1250 1250 1250 13 24 1250 1250 8 1250 1250
1250 1250 1250 1250 1250 1250 27 1250 1250 1250 1250 1250 1250 1250 1250 1250 1250 1250 1250 6 1250 1250 1250 1250 1250 1250 1250 1250 1250 1250 1250 1250 1250 1250 1250 1250 1250 1250 1250 1250 1250 1250 1250 1250 9 13 1250 1250 1250 1250 16 1250 1250 1250 1250 1250 1250 1250 1250 1250 1250 1250 1250 1250 1250 22 38 1250 1250 1250 1250 1250 1250 1250 36 0 1250 1250 1250 1250 1250 1250 36 14 1250 1250 31 1250 16
27 1250 1250 20 1250 1250 1250 26 1250 1250 1250 1250 1250 6 1250 26 1250 1250 13 1250 7 1250 28 16 1250 1250 10 23 1250 1250 1250 1250 1250 1250 1250 1250 26 9 1250 1250 1250 1250 1250 1250 1250 1250 1250 1250 1250 38 1250 1250 25 11 29 1250 19 31 1250 1250 1250 30 1250 23 1250 1250 1250 1250 1250 1250 1250 1250 1250 1250 1250 1250 0 26 1250 1250 1250 1250 1250 1250 1250 12 1250 12 1250
5 24 24 1250 1250 1250 1250 1250 23 1250 22 1250 1250 1250 1250 11 1250 1250 1250 1250 23 1250 14 1250 1250 24 1250 1250 1250 1250 1250 1250 1250 1250 26 1250 1250 26 1250 1250 1250 1250 1250 1250 1250 1250 1250 1250 1250 23 1250 1250 9 20 1250 1250 23 1250 1250 1250 1250 1250 1250 9 1250 1250 1250 1250 1250 1250 1250 1250 1250 1250 1250 1250 26 0 8 1250 1250 1250 1250 1250 18 26 1250 1250 1250
9 24 16 1250 1250 1250 1250 1250 18 34 14 1250 32 1250 1250 15 32 33 1250 1250 31 1250 18 1250 1250 22 1250 1250 1250 1250 19 1250 1250 1250 30 1250 1250 34 1250 1250 1250 1250 1250 31 1250 1250 1250 1250 1250 23 1250 1250 14 27 39 1250 29 45 1250 1250 1250 1250 1250 15 1250 1250 1250 50 1250 1250 1250 1250 1250 1250 1250 1250 1250 8 0 1250 1250 1250 1250 1250 14 1250 1250 1250 1250
1250 1250 1250 1250 1250 1250 31 1250 1250 1250 1250 15 1250 28 1250 1250 1250 1250 31 1250 1250 1250 1250 19 1250 1250 1250 23 1250 1250 1250 24 20 19 1250 1250 8 1250 1250 1250 1250 12 13 1250 26 1250 1250 1250 1250 1250 16 1250 1250 1250 1250 44 1250 31 1250 1250 1250 7 12 1250 1250 12 1250 1250 1250 1250 17 15 24 1250 1250 1250 1250 1250 1250 0 1250 1250 31 1250 1250 32 1250 1250 16
1250 19 1250 1250 20 1250 1250 19 1250 1250 1250 1250 1250 1250 1250 23 13 19 1250 1250 1250 1250 1250 1250 1250 23 1250 1250 7 1250 1250 1250 1250 1250 9 1250 1250 26 14 1250 1250 1250 1250 15 1250 1250 1250 1250 16 1250 1250 1250 25 1250 8 1250 16 1250 1250 1250 1250 1250 1250 1250 1250 1250 1250 1250 1250 1250 1250 1250 1250 1250 1250 1250 1250 1250 1250 1250 0 19 1250 1250 1250 1250 1250 1250 1250
1250 25 1250 1250 37 1250 1250 36 1250 1250 1250 1250 1250 1250 1250 1250 17 18 1250 1250 1250 1250 1250 1250 1250 1250 1250 1250 20 1250 1250 1250 1250 1250 25 1250 1250 1250 25 1250 1250 1250 1250 18 1250 1250 1250 1250 4 1250 1250 1250 1250 1250 26 1250 35 1250 1250 1250 1250 1250 1250 1250 1250 1250 1250 1250 1250 1250 1250 1250 1250 1250 1250 1250 1250 1250 1250 1250 19 0 1250 1250 1250 1250 1250 1250 1250
1250 1250 1250 15 22 1250 10 23 1250 1250 1250 1250 1250 21 1250 1250 1250 1250 11 1250 1250 1250 1250 25 1250 1250 14 37 1250 1250 1250 1250 1250 1250 1250 1250 28 24 36 1250 1250 35 1250 1250 38 27 1250 1250 1250 1250 30 1250 1250 1250 1250 1250 1250 1250 1250 13 1250 24 33 1250 1250 22 13 1250 1250 1250 1250 33 1250 1250 13 36 1250 1250 1250 31 1250 1250 0 28 1250 34 8 13 30
1250 1250 1250 41 47 1250 18 48 1250 1250 1250 1250 1250 1250 1250 1250 1250 1250 1250 20 1250 1250 1250 1250 1250 1250 1250 1250 1250 1250 1250 1250 1250 1250 1250 1250 1250 1250 57 1250 1250 1250 1250 1250 22 19 1250 1250 1250 1250 23 1250 1250 1250 59 1250 1250 1250 1250 37 1250 32 1250 1250 1250 25 26 1250 1250 1250 1250 1250 1250 1250 24 14 1250 1250 1250 1250 1250 1250 28 0 1250 1250 21 1250 24
15 1250 18 1250 1250 1250 1250 1250 6 21 13 1250 18 1250 1250 28 1250 46 1250 1250 39 32 14 1250 43 36 1250 44 1250 1250 12 1250 1250 1250 1250 1250 1250 1250 1250 21 49 1250 1250 1250 1250 1250 1250 1250 1250 12 1250 1250 26 31 1250 1250 1250 41 1250 1250 1250 1250 1250 18 1250 1250 1250 38 1250 1250 1250 1250 1250 32 1250 1250 1250 18 14 1250 1250 1250 1250 1250 0 35 1250 1250 1250
24 1250 1250 1250 1250 1250 1250 1250 41 1250 1250 1250 1250 13 1250 1250 1250 1250 24 1250 17 1250 21 14 33 1250 21 14 1250 1250 1250 41 1250 1250 1250 1250 24 21 1250 37 26 1250 25 1250 1250 1250 1250 1250 1250 30 1250 1250 29 7 1250 1250 29 19 1250 1250 1250 31 1250 19 1250 1250 1250 1250 1250 1250 1250 1250 23 1250 1250 1250 12 26 1250 32 1250 1250 34 1250 35 0 1250 23 1250
1250 1250 1250 20 26 1250 4 1250 1250 1250 1250 1250 1250 1250 1250 1250 1250 1250 19 1250 1250 1250 1250 1250 1250 1250 1250 1250 1250 1250 1250 1250 1250 1250 1250 1250 1250 1250 38 1250 1250 1250 1250 1250 1250 25 1250 1250 1250 1250 29 1250 1250 1250 1250 1250 1250 1250 1250 16 1250 26 33 1250 1250 23 9 1250 1250 1250 1250 1250 1250 1250 8 31 1250 1250 1250 1250 1250 1250 8 21 1250 1250 0 1250 1250
1250 1250 1250 10 18 1250 1250 19 1250 1250 1250 1250 1250 10 1250 1250 1250 1250 2 1250 13 1250 1250 19 1250 1250 1 1250 1250 1250 1250 1250 1250 1250 1250 1250 1250 11 32 1250 1250 1250 1250 1250 1250 1250 1250 1250 1250 1250 1250 1250 1250 22 26 1250 21 1250 1250 14 1250 27 1250 1250 1250 1250 23 1250 1250 1250 1250 1250 1250 1250 1250 1250 12 1250 1250 1250 1250 1250 13 1250 1250 23 1250 0 1250
1250 1250 1250 1250 1250 1250 26 1250 1250 1250 1250 21 1250 1250 1250 1250 1250 1250 36 12 1250 1250 1250 1250 1250 1250 1250 1250 1250 1250 1250 1250 29 11 1250 1250 22 1250 1250 1250 1250 7 1250 1250 11 5 1250 1250 1250 1250 1 1250 1250 1250 1250 53 1250 1250 1250 1250 1250 14 5 1250 1250 9 1250 1250 1250 1250 1250 3 1250 1250 1250 16 1250 1250 1250 16 1250 1250 30 24 1250 1250 1250 1250 0
EOF
